
Gurobi 6.5.2 (linux64) logging started Mon Aug 29 10:57:57 2016

Optimize a model with 201 rows, 1585 columns and 3457 nonzeros
Coefficient statistics:
  Matrix range    [1e+00, 2e+00]
  Objective range [1e+00, 1e+02]
  Bounds range    [1e+00, 1e+00]
  RHS range       [1e+00, 1e+00]
Found heuristic solution: objective 4357
Presolve removed 47 rows and 7 columns
Presolve time: 0.01s
Presolved: 154 rows, 1578 columns, 3262 nonzeros
Variable types: 0 continuous, 1578 integer (1578 binary)

Root relaxation: objective 1.379500e+03, 142 iterations, 0.00 seconds

    Nodes    |    Current Node    |     Objective Bounds      |     Work
 Expl Unexpl |  Obj  Depth IntInf | Incumbent    BestBd   Gap | It/Node Time

     0     0 1379.50000    0   18 4357.00000 1379.50000  68.3%     -    0s
H    0     0                    1518.0000000 1379.50000  9.12%     -    0s
H    0     0                    1406.0000000 1379.50000  1.88%     -    0s
H    0     0                    1403.0000000 1379.50000  1.67%     -    0s
*    0     0               0    1399.0000000 1399.00000  0.00%     -    0s

Cutting planes:
  Cover: 7
  Zero half: 4

Explored 0 nodes (167 simplex iterations) in 0.03 seconds
Thread count was 8 (of 8 available processors)

Optimal solution found (tolerance 1.00e-04)
Best objective 1.399000000000e+03, best bound 1.399000000000e+03, gap 0.0%
